
62.00 12.00 24.00 13.00 76.00 86.00 10.00 25.50 0.00
8.00 20.00 50.00 5.00 81.00 91.00 10.00 21.21 0.00
100.00 20.00 26.00 9.00 83.00 93.00 10.00 17.49 0.00
19.00 20.00 40.00 12.00 87.00 97.00 10.00 15.81 0.00
86.00 16.00 22.00 41.00 91.00 101.00 10.00 23.02 0.00
88.00 28.00 18.00 26.00 93.00 103.00 10.00 18.38 0.00
9.00 10.00 43.00 9.00 95.00 105.00 10.00 26.25 0.00
85.00 11.00 31.00 7.00 101.00 111.00 10.00 24.33 0.00
72.00 57.00 68.00 15.00 77.00 87.00 10.00 39.66 1.00
35.00 65.00 55.00 14.00 117.00 127.00 10.00 36.06 1.00
67.00 49.00 73.00 25.00 127.00 137.00 10.00 40.50 1.00
36.00 63.00 65.00 8.00 143.00 153.00 10.00 41.04 1.00
64.00 27.00 69.00 10.00 34.00 44.00 10.00 34.93 2.00
37.00 2.00 60.00 5.00 41.00 51.00 10.00 41.40 2.00
48.00 8.00 56.00 27.00 51.00 61.00 10.00 34.21 2.00
63.00 24.00 58.00 19.00 58.00 68.00 10.00 25.50 2.00
12.00 20.00 65.00 12.00 67.00 77.00 10.00 33.54 2.00
20.00 15.00 60.00 17.00 76.00 86.00 10.00 32.02 2.00
41.00 40.00 25.00 9.00 85.00 95.00 10.00 11.18 3.00
54.00 37.00 31.00 14.00 95.00 105.00 10.00 4.47 3.00
7.00 25.00 30.00 3.00 99.00 109.00 10.00 11.18 3.00
95.00 26.00 27.00 27.00 100.00 110.00 10.00 12.04 3.00
4.00 55.00 45.00 13.00 116.00 126.00 10.00 22.36 4.00
51.00 47.00 47.00 13.00 124.00 134.00 10.00 16.97 4.00
69.00 56.00 39.00 36.00 142.00 152.00 10.00 21.38 4.00
2.00 41.00 49.00 10.00 161.00 171.00 10.00 15.23 4.00
78.00 53.00 43.00 14.00 179.00 189.00 10.00 19.70 4.00
71.00 37.00 56.00 5.00 182.00 192.00 10.00 21.10 4.00
81.00 56.00 37.00 6.00 182.00 192.00 10.00 21.10 4.00
47.00 2.00 48.00 1.00 117.00 127.00 10.00 35.47 5.00
18.00 5.00 30.00 2.00 157.00 167.00 10.00 30.41 5.00
49.00 13.00 52.00 36.00 165.00 175.00 10.00 27.80 5.00
73.00 47.00 16.00 25.00 35.00 45.00 10.00 22.47 6.00
3.00 35.00 17.00 7.00 50.00 60.00 10.00 18.00 6.00
22.00 45.00 20.00 11.00 62.00 72.00 10.00 18.03 6.00
13.00 50.00 35.00 19.00 63.00 73.00 10.00 15.00 6.00
74.00 44.00 17.00 9.00 78.00 88.00 10.00 20.12 6.00
40.00 60.00 12.00 31.00 44.00 54.00 10.00 33.97 7.00
24.00 55.00 5.00 29.00 68.00 78.00 10.00 36.06 7.00
68.00 67.00 5.00 25.00 83.00 93.00 10.00 43.86 7.00
28.00 35.00 40.00 16.00 37.00 47.00 10.00 5.00 8.00
29.00 41.00 37.00 16.00 39.00 49.00 10.00 6.32 8.00
70.00 37.00 47.00 6.00 50.00 60.00 10.00 12.17 8.00
32.00 31.00 52.00 27.00 50.00 60.00 10.00 17.46 8.00
53.00 27.00 43.00 9.00 52.00 62.00 10.00 11.31 8.00
77.00 49.00 42.00 13.00 73.00 83.00 10.00 15.65 8.00
89.00 26.00 52.00 9.00 74.00 84.00 10.00 19.24 8.00
60.00 21.00 24.00 28.00 18.00 28.00 10.00 17.80 9.00
93.00 22.00 22.00 2.00 18.00 28.00 10.00 18.38 9.00
46.00 6.00 38.00 16.00 32.00 42.00 10.00 29.15 9.00
6.00 15.00 30.00 26.00 34.00 44.00 10.00 20.62 9.00
96.00 25.00 24.00 20.00 39.00 49.00 10.00 14.87 9.00
84.00 14.00 37.00 11.00 44.00 54.00 10.00 21.10 9.00
83.00 15.00 47.00 16.00 55.00 65.00 10.00 23.32 9.00
99.00 19.00 21.00 10.00 58.00 68.00 10.00 21.26 9.00
27.00 45.00 30.00 17.00 132.00 142.00 10.00 11.18 10.00
14.00 30.00 25.00 23.00 159.00 169.00 10.00 11.18 10.00
90.00 26.00 35.00 15.00 176.00 186.00 10.00 9.00 10.00
59.00 36.00 26.00 18.00 200.00 210.00 10.00 9.06 10.00
45.00 11.00 14.00 18.00 69.00 79.00 10.00 31.89 11.00
17.00 10.00 20.00 19.00 75.00 85.00 10.00 29.15 11.00
39.00 5.00 5.00 16.00 83.00 93.00 10.00 42.43 11.00
87.00 4.00 18.00 35.00 94.00 104.00 10.00 35.36 11.00
76.00 49.00 11.00 18.00 69.00 79.00 10.00 27.78 12.00
23.00 45.00 10.00 18.00 97.00 107.00 10.00 26.93 12.00
42.00 42.00 7.00 5.00 97.00 107.00 10.00 28.86 12.00
58.00 32.00 12.00 7.00 101.00 111.00 10.00 23.19 12.00
57.00 53.00 12.00 6.00 130.00 140.00 10.00 29.21 12.00
44.00 23.00 3.00 7.00 132.00 142.00 10.00 34.18 12.00
75.00 46.00 13.00 8.00 149.00 159.00 10.00 24.60 12.00
34.00 53.00 52.00 11.00 37.00 47.00 10.00 24.76 13.00
30.00 64.00 42.00 9.00 63.00 73.00 10.00 29.83 13.00
31.00 40.00 60.00 21.00 71.00 81.00 10.00 25.50 13.00
52.00 49.00 58.00 10.00 88.00 98.00 10.00 26.93 13.00
80.00 57.00 48.00 23.00 92.00 102.00 10.00 25.55 13.00
82.00 55.00 54.00 26.00 94.00 104.00 10.00 27.59 13.00
79.00 61.00 52.00 3.00 96.00 106.00 10.00 31.06 13.00
10.00 55.00 60.00 16.00 97.00 107.00 10.00 32.02 13.00
43.00 24.00 12.00 5.00 31.00 41.00 10.00 25.50 14.00
15.00 15.00 10.00 20.00 32.00 42.00 10.00 32.02 14.00
16.00 30.00 5.00 8.00 61.00 71.00 10.00 30.41 14.00
66.00 62.00 77.00 20.00 51.00 61.00 10.00 49.93 15.00
91.00 31.00 67.00 3.00 95.00 105.00 10.00 32.25 16.00
11.00 30.00 60.00 16.00 124.00 134.00 10.00 25.50 16.00
21.00 45.00 65.00 9.00 126.00 136.00 10.00 31.62 16.00
33.00 35.00 69.00 23.00 141.00 151.00 10.00 34.00 16.00
65.00 15.00 77.00 9.00 73.00 83.00 10.00 46.52 17.00
50.00 6.00 68.00 30.00 108.00 118.00 10.00 43.93 17.00
98.00 25.00 21.00 12.00 133.00 143.00 10.00 17.20 18.00
38.00 20.00 20.00 8.00 134.00 144.00 10.00 21.21 18.00
97.00 22.00 27.00 11.00 135.00 145.00 10.00 15.26 18.00
92.00 15.00 19.00 1.00 160.00 170.00 10.00 25.61 18.00
61.00 17.00 34.00 3.00 162.00 172.00 10.00 18.03 18.00
101.00 18.00 18.00 17.00 185.00 195.00 10.00 24.04 18.00
94.00 18.00 24.00 22.00 188.00 198.00 10.00 20.25 18.00
56.00 63.00 23.00 2.00 136.00 146.00 10.00 30.46 19.00
55.00 57.00 29.00 18.00 140.00 150.00 10.00 22.80 19.00
5.00 55.00 20.00 19.00 149.00 159.00 10.00 25.00 19.00
25.00 65.00 35.00 3.00 153.00 163.00 10.00 30.00 19.00
26.00 65.00 20.00 6.00 172.00 182.00 10.00 33.54 19.00
